(set-info :status unsat)
(declare-datatypes ((T 0)) ((
  (f0)
  (f1 (proj0f1 T) (proj1f1 T) (proj2f1 T))
  (f2 (proj0f2 T) (proj1f2 T) (proj2f2 T) (proj3f2 T)))))
(assert (exists ((y9443 T) (y9431 T) (y9442 T) (y9436 T) (y9441 T) (y9437 T) (y9439 T) (y9434 T) (y9448 T) (y9435 T) (y9429 T) (y9428 T) (y9438 T) (y9440 T) (y9447 T) (y9446 T) (y9445 T) (y9444 T) (y9432 T) (y9433 T) (y9430 T) (y9422 T) (y9425 T) (y9424 T) (y9427 T) (y9426 T) (y9423 T)) 
  (or 
    (and (= y9422 (f2 (f2 y9422 PLACEHOLDER PLACEHOLDER PLACEHOLDER) (f2 (f2 (f1 PLACEHOLDER PLACEHOLDER PLACEHOLDER) PLACEHOLDER (f1 PLACEHOLDER PLACEHOLDER PLACEHOLDER) (f1 PLACEHOLDER PLACEHOLDER PLACEHOLDER)) PLACEHOLDER PLACEHOLDER (f1 (f1 PLACEHOLDER PLACEHOLDER PLACEHOLDER) (f2 PLACEHOLDER PLACEHOLDER PLACEHOLDER PLACEHOLDER) PLACEHOLDER)) (f1 y9423 (f2 PLACEHOLDER PLACEHOLDER PLACEHOLDER PLACEHOLDER) PLACEHOLDER) (f2 (f1 PLACEHOLDER PLACEHOLDER PLACEHOLDER) (f2 PLACEHOLDER PLACEHOLDER PLACEHOLDER PLACEHOLDER) PLACEHOLDER (f2 PLACEHOLDER PLACEHOLDER PLACEHOLDER PLACEHOLDER)))) (= y9423 (f2 y9424 PLACEHOLDER PLACEHOLDER PLACEHOLDER)) (= y9424 (f1 y9425 (f1 PLACEHOLDER PLACEHOLDER PLACEHOLDER) PLACEHOLDER)) (= y9425 (f2 y9422 PLACEHOLDER PLACEHOLDER PLACEHOLDER))) 
    (and (= y9426 (f2 y9427 (f1 PLACEHOLDER (f2 PLACEHOLDER PLACEHOLDER PLACEHOLDER PLACEHOLDER) (f2 PLACEHOLDER PLACEHOLDER PLACEHOLDER PLACEHOLDER)) (f1 PLACEHOLDER PLACEHOLDER PLACEHOLDER) PLACEHOLDER)) (= y9427 (f2 y9428 PLACEHOLDER PLACEHOLDER PLACEHOLDER)) (= y9428 (f1 y9426 PLACEHOLDER PLACEHOLDER))) 
    (and (= y9429 (f1 (f2 (f1 y9429 PLACEHOLDER PLACEHOLDER) (f2 PLACEHOLDER PLACEHOLDER PLACEHOLDER PLACEHOLDER) PLACEHOLDER (f1 PLACEHOLDER PLACEHOLDER PLACEHOLDER)) y9430 (f1 (f2 PLACEHOLDER PLACEHOLDER (f1 PLACEHOLDER PLACEHOLDER PLACEHOLDER) (f1 PLACEHOLDER PLACEHOLDER PLACEHOLDER)) PLACEHOLDER (f2 PLACEHOLDER (f1 PLACEHOLDER PLACEHOLDER PLACEHOLDER) (f2 PLACEHOLDER PLACEHOLDER PLACEHOLDER PLACEHOLDER) (f1 PLACEHOLDER PLACEHOLDER PLACEHOLDER))))) (= y9430 (f2 y9431 (f2 PLACEHOLDER (f1 PLACEHOLDER PLACEHOLDER PLACEHOLDER) (f1 PLACEHOLDER PLACEHOLDER PLACEHOLDER) (f2 PLACEHOLDER PLACEHOLDER PLACEHOLDER PLACEHOLDER)) (f1 PLACEHOLDER PLACEHOLDER PLACEHOLDER) (f1 (f2 PLACEHOLDER PLACEHOLDER PLACEHOLDER PLACEHOLDER) (f1 PLACEHOLDER PLACEHOLDER PLACEHOLDER) (f2 PLACEHOLDER PLACEHOLDER PLACEHOLDER PLACEHOLDER)))) (= y9431 (f2 y9432 PLACEHOLDER (f2 PLACEHOLDER PLACEHOLDER PLACEHOLDER PLACEHOLDER) (f2 PLACEHOLDER PLACEHOLDER PLACEHOLDER PLACEHOLDER))) (= y9432 (f2 y9429 PLACEHOLDER PLACEHOLDER PLACEHOLDER))) 
    (and (= y9433 (f2 y9434 PLACEHOLDER (f1 PLACEHOLDER PLACEHOLDER PLACEHOLDER) (f1 PLACEHOLDER PLACEHOLDER PLACEHOLDER))) (= y9434 (f2 y9433 PLACEHOLDER PLACEHOLDER PLACEHOLDER))) 
    (and (= y9435 (f1 (f2 y9436 PLACEHOLDER (f1 PLACEHOLDER PLACEHOLDER (f2 PLACEHOLDER PLACEHOLDER PLACEHOLDER PLACEHOLDER)) PLACEHOLDER) PLACEHOLDER PLACEHOLDER)) (= y9436 (f1 y9437 y9435 (f1 PLACEHOLDER PLACEHOLDER PLACEHOLDER))) (= y9437 (f1 y9435 PLACEHOLDER PLACEHOLDER))) (= y9438 (f2 y9438 y9438 PLACEHOLDER PLACEHOLDER)) 
    (and (= y9439 (f2 y9440 (f1 (f1 PLACEHOLDER PLACEHOLDER PLACEHOLDER) (f2 PLACEHOLDER PLACEHOLDER PLACEHOLDER PLACEHOLDER) PLACEHOLDER) (f1 (f2 (f2 PLACEHOLDER PLACEHOLDER PLACEHOLDER PLACEHOLDER) PLACEHOLDER PLACEHOLDER (f1 PLACEHOLDER PLACEHOLDER PLACEHOLDER)) (f2 PLACEHOLDER PLACEHOLDER PLACEHOLDER PLACEHOLDER) (f2 (f2 PLACEHOLDER PLACEHOLDER PLACEHOLDER PLACEHOLDER) PLACEHOLDER (f1 PLACEHOLDER PLACEHOLDER PLACEHOLDER) (f1 PLACEHOLDER PLACEHOLDER PLACEHOLDER))) (f1 PLACEHOLDER PLACEHOLDER PLACEHOLDER))) (= y9440 (f2 y9441 (f1 PLACEHOLDER (f2 PLACEHOLDER PLACEHOLDER PLACEHOLDER PLACEHOLDER) (f2 PLACEHOLDER PLACEHOLDER PLACEHOLDER PLACEHOLDER)) (f1 PLACEHOLDER PLACEHOLDER PLACEHOLDER) PLACEHOLDER)) (= y9441 (f2 y9442 (f1 PLACEHOLDER PLACEHOLDER PLACEHOLDER) (f2 PLACEHOLDER PLACEHOLDER PLACEHOLDER PLACEHOLDER) (f1 PLACEHOLDER PLACEHOLDER PLACEHOLDER))) (= y9442 (f1 y9439 PLACEHOLDER PLACEHOLDER))) 
    (and (= y9443 (f2 y9444 PLACEHOLDER PLACEHOLDER (f2 (f1 PLACEHOLDER PLACEHOLDER PLACEHOLDER) (f2 PLACEHOLDER PLACEHOLDER PLACEHOLDER PLACEHOLDER) (f2 PLACEHOLDER PLACEHOLDER PLACEHOLDER PLACEHOLDER) (f1 PLACEHOLDER PLACEHOLDER PLACEHOLDER)))) (= y9444 (f1 y9445 (f2 PLACEHOLDER PLACEHOLDER PLACEHOLDER PLACEHOLDER) (f2 PLACEHOLDER PLACEHOLDER PLACEHOLDER PLACEHOLDER))) (= y9445 (f2 y9443 y9443 PLACEHOLDER PLACEHOLDER))) 
    (and (= y9446 (f2 (f1 y9447 (f1 PLACEHOLDER PLACEHOLDER PLACEHOLDER) PLACEHOLDER) (f1 PLACEHOLDER (f2 PLACEHOLDER PLACEHOLDER PLACEHOLDER PLACEHOLDER) (f1 PLACEHOLDER PLACEHOLDER PLACEHOLDER)) (f2 PLACEHOLDER (f2 PLACEHOLDER PLACEHOLDER (f2 PLACEHOLDER PLACEHOLDER PLACEHOLDER PLACEHOLDER) (f2 PLACEHOLDER PLACEHOLDER PLACEHOLDER PLACEHOLDER)) (f2 PLACEHOLDER (f2 PLACEHOLDER PLACEHOLDER PLACEHOLDER PLACEHOLDER) PLACEHOLDER (f1 PLACEHOLDER PLACEHOLDER PLACEHOLDER)) (f1 PLACEHOLDER PLACEHOLDER PLACEHOLDER)) (f1 PLACEHOLDER PLACEHOLDER PLACEHOLDER))) (= y9447 (f1 y9448 PLACEHOLDER PLACEHOLDER)) (= y9448 (f1 y9446 PLACEHOLDER PLACEHOLDER))))))
(check-sat)
